 C Cu  H  O 
 1.0000000000000000
     7.1360000000000010   -0.0000000000000009    0.0000000000000000
     0.0000000000000009    7.1360000000000010    0.0000000000000000
     0.0000000000000000    0.0000000000000000   30.7288520077396932
 C   Cu  H   O  
   6  38   6   4
Selective dynamics
Direct
  0.2588429095847813  0.6824967347023294  0.3600351651585629   T   T   T
  0.1224962591101325  0.5420918531035107  0.3600351651585629   T   T   T
  0.1759171324304634  0.3538097483861012  0.3600351651585629   T   T   T
  0.3656846534436004  0.3059325238252221  0.3600351651585629   T   T   T
  0.5020313024965078  0.4463374068046888  0.3600351651585629   T   T   T
  0.4486104305773719  0.6346195115426450  0.3600351651585629   T   T   T
  0.0000000000000000  0.7500000000000000  0.1885276975306202   T   T   T
  0.7904151244939299  0.2500000000000001  0.2538833413776110   T   T   T
  0.4999999999999999  0.2500000000000000  0.0743275407563162   F   F   F
  0.4999999999999999  0.2500000000000000  0.1936774902450184   T   T   T
  0.4999999999999999  0.0000000000000000  0.2580263006812799   T   T   T
  0.4999999999999999  0.0000000000000000  0.0162713530552319   F   F   F
  0.2500000000000000  0.0000000000000000  0.0743275407563162   F   F   F
  0.7500000000000001  0.2500000000000000  0.0162713530552319   F   F   F
  0.2460889692977240  0.0000000000000000  0.1923130343715064   T   T   T
  0.2095848755060701  0.2500000000000000  0.2538833413776110   T   T   T
  0.0000000000000000  0.2500000000000000  0.1885276975306202   T   T   T
  0.7500000000000000 -0.0000000000000000  0.0743275407563162   F   F   F
  0.7464702470194903  0.2500000000000001  0.1334780003492088   T   T   T
  0.2500000000000000  0.2500000000000000  0.0162713530552319   F   F   F
  0.2535297529805097  0.2500000000000000  0.1334780003492088   T   T   T
  0.0000000000000000  0.0000000000000000  0.1323848257304751   T   T   T
  0.4999999999999999  0.0000000000000000  0.1342960957047145   T   T   T
  0.0000000000000000  0.0000000000000000  0.0162713530552319   F   F   F
  0.4999999999999999  0.4999999999999999  0.1342960957047145   T   T   T
  0.4999999999999999  0.7500000000000004  0.1936774902450184   T   T   T
  0.4999999999999999  0.4999999999999999  0.2580263006812799   T   T   T
  0.2500000000000000  0.7500000000000000  0.0162713530552319   F   F   F
  0.0000000000000000  0.2500000000000000  0.0743275407563162   F   F   F
  0.2499999999999999  0.4999999999999999  0.0743275407563162   F   F   F
  0.2095848755060701  0.7500000000000000  0.2538833413776110   T   T   T
  0.4999999999999999  0.7500000000000004  0.0743275407563162   F   F   F
  0.0000000000000000  0.4999999999999999  0.1323848257304751   T   T   T
  0.2460889692977240  0.4999999999999999  0.1923130343715064   T   T   T
  0.7500000000000001  0.5000000000000001  0.0743275407563162   F   F   F
  0.7464702470194906  0.7500000000000003  0.1334780003492088   T   T   T
  0.7539110307022756  0.5000000000000001  0.1923130343715064   T   T   T
  0.7904151244939299  0.7500000000000002  0.2538833413776110   T   T   T
  0.2535297529805097  0.7500000000000001  0.1334780003492088   T   T   T
  0.0000000000000000  0.4999999999999999  0.0162713530552319   F   F   F
  0.0000000000000000  0.7500000000000000  0.0743275407563162   F   F   F
  0.7539110307022757 -0.0000000000000000  0.1923130343715064   T   T   T
  0.7500000000000000  0.7500000000000002  0.0162713530552319   F   F   F
  0.4999999999999999  0.4999999999999999  0.0162713530552319   F   F   F
  0.0697956552935761  0.2445296631653135  0.3600351651585629   T   T   T
 -0.0252038131732527  0.5793557023511631  0.3600351651585629   T   T   T
  0.2172643199197809  0.8290406776601240  0.3600351651585629   T   T   T
  0.5547319063336107  0.7438995953416909  0.3600351651585629   T   T   T
  0.4072632416868597  0.1593885822480746  0.3600351651585629   T   T   T
  0.6497313762016350  0.4090735561763882  0.3600351651585629   T   T   T
  0.7600633779390760 -0.0000000000000000  0.2659228510643643   T   T   T
  0.2399366220609239 -0.0000000000000000  0.2659228510643643   T   T   T
  0.7600633779390760  0.5000000000000000  0.2659228510643643   T   T   T
  0.2399366220609238  0.4999999999999999  0.2659228510643643   T   T   T
