Ag  C  H  N Ni 
 1.0000000000000000
    18.3914872155570954   -0.0000000000000173    0.0000000000000000
     0.0000000000000173   18.3914872155570954    0.0000000000000000
     0.0000000000000000    0.0000000000000000   20.9239999999999995
 Ag  C   H   N   Ni 
 205  48  16  16   2
Selective dynamics
Direct
  0.0243902439024390  0.7804878048780486  0.0000000000000000   F   F   F
  0.8170731707317073  0.6463414634146338  0.0970655706365896   F   F   F
  0.7073170731707318  0.6341463414634144  0.1941311412731792   F   F   F
  0.8170731707317073  0.6463414634146338  0.2911967119097687   T   T   T
  0.7073170731707318  0.6341463414634144  0.3882622825463583   T   T   T
  0.8048780487804880  0.7560975609756099  0.0000000000000000   F   F   F
  0.9146341463414631  0.7682926829268290  0.0970655706365896   F   F   F
  0.8048780487804880  0.7560975609756099  0.1941311412731792   F   F   F
  0.9146341463414631  0.7682926829268290  0.2911967119097687   T   T   T
  0.8048780487804880  0.7560975609756099  0.3882622825463583   T   T   T
  0.9024390243902440  0.8780487804878049  0.0000000000000000   F   F   F
  0.0121951219512196  0.8902439024390243  0.0970655706365896   F   F   F
  0.9024390243902440  0.8780487804878049  0.1941311412731792   F   F   F
  0.9024390243902440  0.8780487804878049  0.3882622825463583   T   T   T
  0.4390243902439024  0.0487804878048780  0.0000000000000000   F   F   F
  0.5487804878048780  0.0609756097560975  0.0970655706365896   F   F   F
  0.4390243902439024  0.0487804878048780  0.1941311412731792   F   F   F
  0.5487804878048780  0.0609756097560975  0.2911967119097687   T   T   T
  0.4390243902439024  0.0487804878048780  0.3882622825463583   T   T   T
  0.5365853658536586  0.1707317073170731  0.0000000000000000   F   F   F
  0.6463414634146341  0.1829268292682925  0.0970655706365896   F   F   F
  0.5365853658536586  0.1707317073170731  0.1941311412731792   F   F   F
  0.7073170731707318  0.6341463414634144  0.0000000000000000   F   F   F
  0.6097560975609756  0.5121951219512192  0.3882622825463583   T   T   T
  0.7195121951219513  0.5243902439024388  0.2911967119097687   T   T   T
  0.6097560975609756  0.5121951219512192  0.1941311412731792   F   F   F
  0.2195121951219512  0.0243902439024390  0.0000000000000000   F   F   F
  0.3292682926829268  0.0365853658536585  0.0970655706365896   F   F   F
  0.2195121951219512  0.0243902439024390  0.1941311412731792   F   F   F
  0.3292682926829268  0.0365853658536585  0.2911967119097687   T   T   T
  0.2195121951219512  0.0243902439024390  0.3882622825463583   T   T   T
  0.3170731707317074  0.1463414634146341  0.0000000000000000   F   F   F
  0.4268292682926829  0.1585365853658536  0.0970655706365896   F   F   F
  0.3170731707317074  0.1463414634146341  0.1941311412731792   F   F   F
  0.4268292682926829  0.1585365853658536  0.2911967119097687   T   T   T
  0.3170731707317074  0.1463414634146341  0.3882622825463583   T   T   T
  0.6463414634146341  0.1829268292682925  0.2911967119097687   T   T   T
  0.4146341463414634  0.2682926829268292  0.0000000000000000   F   F   F
  0.4146341463414634  0.2682926829268292  0.1941311412731792   F   F   F
  0.5243902439024390  0.2804878048780486  0.2911967119097687   T   T   T
  0.4146341463414634  0.2682926829268292  0.3882622825463583   T   T   T
  0.5121951219512196  0.3902439024390242  0.0000000000000000   F   F   F
  0.6219512195121951  0.4024390243902437  0.0970655706365896   F   F   F
  0.5121951219512196  0.3902439024390242  0.1941311412731792   F   F   F
  0.6219512195121951  0.4024390243902437  0.2911967119097687   T   T   T
  0.5121951219512196  0.3902439024390242  0.3882622825463583   T   T   T
  0.6097560975609756  0.5121951219512192  0.0000000000000000   F   F   F
  0.7195121951219513  0.5243902439024388  0.0970655706365896   F   F   F
  0.5243902439024390  0.2804878048780486  0.0970655706365896   F   F   F
  0.5365853658536586  0.1707317073170731  0.3882622825463583   T   T   T
  0.6341463414634148  0.2926829268292682  0.0000000000000000   F   F   F
  0.7439024390243903  0.3048780487804875  0.0970655706365896   F   F   F
  0.8658536585365850  0.2073170731707316  0.2911967119097687   T   T   T
  0.7560975609756098  0.1951219512195122  0.3882622825463583   T   T   T
  0.8536585365853657  0.3170731707317073  0.0000000000000000   F   F   F
  0.9634146341463411  0.3292682926829268  0.0970655706365896   F   F   F
  0.8536585365853657  0.3170731707317073  0.1941311412731792   F   F   F
  0.9634146341463411  0.3292682926829268  0.2911967119097687   T   T   T
  0.8536585365853657  0.3170731707317073  0.3882622825463583   T   T   T
  0.9512195121951219  0.4390243902439023  0.0000000000000000   F   F   F
  0.0609756097560977  0.4512195121951219  0.0970655706365896   F   F   F
  0.9512195121951219  0.4390243902439023  0.1941311412731792   F   F   F
  0.7560975609756098  0.1951219512195122  0.1941311412731792   F   F   F
  0.0609756097560977  0.4512195121951219  0.2911967119097687   T   T   T
  0.8780487804878049  0.0975609756097560  0.0000000000000000   F   F   F
  0.9878048780487801  0.1097560975609755  0.0970655706365896   F   F   F
  0.8780487804878049  0.0975609756097560  0.1941311412731792   F   F   F
  0.9878048780487801  0.1097560975609755  0.2911967119097687   T   T   T
  0.8780487804878049  0.0975609756097560  0.3882622825463583   T   T   T
  0.9756097560975610  0.2195121951219511  0.0000000000000000   F   F   F
  0.0853658536585365  0.2317073170731706  0.0970655706365896   F   F   F
  0.9756097560975610  0.2195121951219511  0.1941311412731792   F   F   F
  0.0853658536585365  0.2317073170731706  0.2911967119097687   T   T   T
  0.9756097560975610  0.2195121951219511  0.3882622825463583   T   T   T
  0.9512195121951219  0.4390243902439023  0.3882622825463583   T   T   T
  0.7804878048780487  0.9756097560975610  0.3882622825463583   T   T   T
  0.8658536585365850  0.2073170731707316  0.0970655706365896   F   F   F
  0.6585365853658537  0.0731707317073169  0.3882622825463583   T   T   T
  0.6341463414634148  0.2926829268292682  0.1941311412731792   F   F   F
  0.7439024390243903  0.3048780487804875  0.2911967119097687   T   T   T
  0.6341463414634148  0.2926829268292682  0.3882622825463583   T   T   T
  0.7317073170731709  0.4146341463414634  0.0000000000000000   F   F   F
  0.8414634146341463  0.4268292682926828  0.0970655706365896   F   F   F
  0.7317073170731709  0.4146341463414634  0.1941311412731792   F   F   F
  0.8414634146341463  0.4268292682926828  0.2911967119097687   T   T   T
  0.7317073170731709  0.4146341463414634  0.3882622825463583   T   T   T
  0.8292682926829268  0.5365853658536583  0.0000000000000000   F   F   F
  0.9390243902439022  0.5487804878048778  0.0970655706365896   F   F   F
  0.7560975609756098  0.1951219512195122  0.0000000000000000   F   F   F
  0.8292682926829268  0.5365853658536583  0.1941311412731792   F   F   F
  0.8292682926829268  0.5365853658536583  0.3882622825463583   T   T   T
  0.9268292682926828  0.6585365853658536  0.0000000000000000   F   F   F
  0.0365853658536586  0.6707317073170731  0.0970655706365896   F   F   F
  0.9268292682926828  0.6585365853658536  0.1941311412731792   F   F   F
  0.0365853658536586  0.6707317073170731  0.2911967119097687   T   T   T
  0.9268292682926828  0.6585365853658536  0.3882622825463583   T   T   T
  0.6585365853658537  0.0731707317073169  0.0000000000000000   F   F   F
  0.7682926829268293  0.0853658536585365  0.0970655706365896   F   F   F
  0.6585365853658537  0.0731707317073169  0.1941311412731792   F   F   F
  0.7682926829268293  0.0853658536585365  0.2911967119097687   T   T   T
  0.9390243902439022  0.5487804878048778  0.2911967119097687   T   T   T
  0.8902439024390244  0.9878048780487804  0.2911967119097687   T   T   T
  0.0121951219512196  0.8902439024390243  0.2911967119097687   T   T   T
  0.8902439024390244  0.9878048780487804  0.0970655706365896   F   F   F
  0.3414634146341465  0.9268292682926833  0.1941311412731792   F   F   F
  0.4512195121951220  0.9390243902439023  0.2911967119097687   T   T   T
  0.3414634146341465  0.9268292682926833  0.3882622825463583   T   T   T
  0.0731707317073171  0.3414634146341462  0.0000000000000000   F   F   F
  0.1829268292682927  0.3536585365853658  0.0970655706365896   F   F   F
  0.0731707317073171  0.3414634146341462  0.1941311412731792   F   F   F
  0.1829268292682927  0.3536585365853658  0.2911967119097687   T   T   T
  0.0731707317073171  0.3414634146341462  0.3882622825463583   T   T   T
  0.1707317073170733  0.4634146341463417  0.0000000000000000   F   F   F
  0.2804878048780487  0.4756097560975608  0.0970655706365896   F   F   F
  0.4512195121951220  0.9390243902439023  0.0970655706365896   F   F   F
  0.1707317073170733  0.4634146341463417  0.1941311412731792   F   F   F
  0.1707317073170733  0.4634146341463417  0.3882622825463583   T   T   T
  0.2682926829268293  0.5853658536585366  0.0000000000000000   F   F   F
  0.3780487804878048  0.5975609756097560  0.0970655706365896   F   F   F
  0.2682926829268293  0.5853658536585366  0.1941311412731792   F   F   F
  0.3780487804878048  0.5975609756097560  0.2911967119097687   T   T   T
  0.2682926829268293  0.5853658536585366  0.3882622825463583   T   T   T
  0.3658536585365855  0.7073170731707318  0.0000000000000000   F   F   F
  0.4756097560975611  0.7195121951219512  0.0970655706365896   F   F   F
  0.3658536585365855  0.7073170731707318  0.1941311412731792   F   F   F
  0.4756097560975611  0.7195121951219512  0.2911967119097687   T   T   T
  0.2804878048780487  0.4756097560975608  0.2911967119097687   T   T   T
  0.3658536585365855  0.7073170731707318  0.3882622825463583   T   T   T
  0.3414634146341465  0.9268292682926833  0.0000000000000000   F   F   F
  0.3536585365853660  0.8170731707317070  0.2911967119097687   T   T   T
  0.1341463414634146  0.7926829268292681  0.0970655706365896   F   F   F
  0.0243902439024390  0.7804878048780486  0.1941311412731792   F   F   F
  0.1341463414634146  0.7926829268292681  0.2911967119097687   T   T   T
  0.0243902439024390  0.7804878048780486  0.3882622825463583   T   T   T
  0.1219512195121952  0.9024390243902440  0.0000000000000000   F   F   F
  0.2317073170731709  0.9146341463414634  0.0970655706365896   F   F   F
  0.1219512195121952  0.9024390243902440  0.1941311412731792   F   F   F
  0.2317073170731709  0.9146341463414634  0.2911967119097687   T   T   T
  0.1219512195121952  0.9024390243902440  0.3882622825463583   T   T   T
  0.0487804878048781  0.5609756097560975  0.0000000000000000   F   F   F
  0.2439024390243903  0.8048780487804877  0.3882622825463583   T   T   T
  0.7804878048780487  0.9756097560975610  0.1941311412731792   F   F   F
  0.1585365853658537  0.5731707317073171  0.2911967119097687   T   T   T
  0.0487804878048781  0.5609756097560975  0.3882622825463583   T   T   T
  0.1463414634146341  0.6829268292682924  0.0000000000000000   F   F   F
  0.2560975609756097  0.6951219512195119  0.0970655706365896   F   F   F
  0.1463414634146341  0.6829268292682924  0.1941311412731792   F   F   F
  0.2560975609756097  0.6951219512195119  0.2911967119097687   T   T   T
  0.1463414634146341  0.6829268292682924  0.3882622825463583   T   T   T
  0.2439024390243903  0.8048780487804877  0.0000000000000000   F   F   F
  0.3536585365853660  0.8170731707317070  0.0970655706365896   F   F   F
  0.2439024390243903  0.8048780487804877  0.1941311412731792   F   F   F
  0.0487804878048781  0.5609756097560975  0.1941311412731792   F   F   F
  0.4634146341463415  0.8292682926829267  0.0000000000000000   F   F   F
  0.1585365853658537  0.5731707317073171  0.0970655706365896   F   F   F
  0.4634146341463415  0.8292682926829267  0.1941311412731792   F   F   F
  0.2926829268292683  0.3658536585365854  0.3882622825463583   T   T   T
  0.3902439024390243  0.4878048780487805  0.0000000000000000   F   F   F
  0.5000000000000001  0.5000000000000000  0.0970655706365896   F   F   F
  0.3902439024390243  0.4878048780487805  0.1941311412731792   F   F   F
  0.5000000000000001  0.5000000000000000  0.2911967119097687   T   T   T
  0.3902439024390243  0.4878048780487805  0.3882622825463583   T   T   T
  0.4878048780487806  0.6097560975609757  0.0000000000000000   F   F   F
  0.5975609756097561  0.6219512195121950  0.0970655706365896   F   F   F
  0.5975609756097561  0.6219512195121950  0.2911967119097687   T   T   T
  0.4878048780487806  0.6097560975609757  0.3882622825463583   T   T   T
  0.4024390243902439  0.3780487804878049  0.2911967119097687   T   T   T
  0.5853658536585366  0.7317073170731707  0.0000000000000000   F   F   F
  0.5853658536585366  0.7317073170731707  0.1941311412731792   F   F   F
  0.6951219512195124  0.7439024390243903  0.2911967119097687   T   T   T
  0.5853658536585366  0.7317073170731707  0.3882622825463583   T   T   T
  0.6829268292682928  0.8536585365853661  0.0000000000000000   F   F   F
  0.7926829268292682  0.8658536585365852  0.0970655706365896   F   F   F
  0.6829268292682928  0.8536585365853661  0.1941311412731792   F   F   F
  0.7926829268292682  0.8658536585365852  0.2911967119097687   T   T   T
  0.6829268292682928  0.8536585365853661  0.3882622825463583   T   T   T
  0.7804878048780487  0.9756097560975610  0.0000000000000000   F   F   F
  0.5731707317073170  0.8414634146341462  0.0970655706365896   F   F   F
  0.6951219512195124  0.7439024390243903  0.0970655706365896   F   F   F
  0.2926829268292683  0.3658536585365854  0.1941311412731792   F   F   F
  0.4878048780487806  0.6097560975609757  0.1941311412731792   F   F   F
  0.2926829268292683  0.3658536585365854  0.0000000000000000   F   F   F
  0.5731707317073170  0.8414634146341462  0.2911967119097687   T   T   T
  0.4024390243902439  0.3780487804878049  0.0970655706365896   F   F   F
  0.5609756097560978  0.9512195121951219  0.0000000000000000   F   F   F
  0.6707317073170733  0.9634146341463411  0.0970655706365896   F   F   F
  0.5609756097560978  0.9512195121951219  0.1941311412731792   F   F   F
  0.6707317073170733  0.9634146341463411  0.2911967119097687   T   T   T
  0.5609756097560978  0.9512195121951219  0.3882622825463583   T   T   T
  0.0000000000000000  0.0000000000000000  0.0000000000000000   F   F   F
  0.1097560975609756  0.0121951219512195  0.0970655706365896   F   F   F
  0.0000000000000000  0.0000000000000000  0.1941311412731792   F   F   F
  0.1097560975609756  0.0121951219512195  0.2911967119097687   T   T   T
  0.4634146341463415  0.8292682926829267  0.3882622825463583   T   T   T
  0.0975609756097561  0.1219512195121951  0.0000000000000000   F   F   F
  0.0000000000000000  0.0000000000000000  0.3882622825463583   T   T   T
  0.1951219512195122  0.2439024390243902  0.3882622825463583   T   T   T
  0.1951219512195122  0.2439024390243902  0.1941311412731792   F   F   F
  0.3048780487804879  0.2560975609756098  0.0970655706365896   F   F   F
  0.1951219512195122  0.2439024390243902  0.0000000000000000   F   F   F
  0.3048780487804879  0.2560975609756098  0.2911967119097687   T   T   T
  0.2073170731707317  0.1341463414634146  0.2911967119097687   T   T   T
  0.0975609756097561  0.1219512195121951  0.1941311412731792   F   F   F
  0.2073170731707317  0.1341463414634146  0.0970655706365896   F   F   F
  0.0975609756097561  0.1219512195121951  0.3882622825463583   T   T   T
  0.1982022672574049  0.1139509136234885  0.5220799082393424   T   T   T
  0.1289185985743276  0.3079886426553261  0.5220799082393424   T   T   T
  0.2549641003960839  0.2604610326467106  0.5220799082393424   T   T   T
  0.2589507109223070  0.4619368788742945  0.5220799082393424   T   T   T
  0.1509414932569179  0.1754912520156873  0.5220799082393424   T   T   T
  0.2809736054130595  0.3294394877258921  0.5220799082393424   T   T   T
  0.3350779062617539  0.4769516747042428  0.5220799082393424   T   T   T
  0.1549281035913031  0.3769670977345078  0.5220799082393424   T   T   T
  0.2116899367299819  0.5234772167577297  0.5220799082393424   T   T   T
  0.0748142977256331  0.1604764556769754  0.5220799082393424   T   T   T
  0.6920113573446740  0.1289185985743277  0.5220799082393424   T   T   T
  0.7538166456399326  0.1775971582537064  0.5220799082393424   T   T   T
  0.6230329022654921  0.1549281035913032  0.5220799082393424   T   T   T
  0.6705605122741080  0.2809736054130595  0.5220799082393424   T   T   T
  0.7395389673532895  0.2549641003960840  0.5220799082393424   T   T   T
  0.5380631211257055  0.2589507109223071  0.5220799082393424   T   T   T
  0.8245087479843128  0.1509414932569180  0.5220799082393424   T   T   T
  0.5230483252957572  0.3350779062617539  0.5220799082393424   T   T   T
  0.4765227832422702  0.2116899367299820  0.5220799082393424   T   T   T
  0.8860490863765116  0.1982022672574050  0.5220799082393424   T   T   T
  0.8395235443230247  0.0748142977256332  0.5220799082393424   T   T   T
  0.1775971582537063  0.2461833543600674  0.5220799082393424   T   T   T
  0.6087552234700856  0.2322950459255186  0.5220799082393424   T   T   T
  0.2322950459255185  0.3912447765299145  0.5220799082393424   T   T   T
  0.7190263945869405  0.6705605122741080  0.5220799082393424   T   T   T
  0.8017977327425948  0.8860490863765116  0.5220799082393424   T   T   T
  0.9251857022743669  0.8395235443230248  0.5220799082393424   T   T   T
  0.3912447765299144  0.7677049540744816  0.5220799082393424   T   T   T
  0.2461833543600674  0.8224028417462934  0.5220799082393424   T   T   T
  0.3769670977345078  0.8450718964086970  0.5220799082393424   T   T   T
  0.3294394877258920  0.7190263945869405  0.5220799082393424   T   T   T
  0.3079886426553260  0.8710814014256723  0.5220799082393424   T   T   T
  0.2604610326467105  0.7450358996039160  0.5220799082393424   T   T   T
  0.1754912520156872  0.8490585067430820  0.5220799082393424   T   T   T
  0.4769516747042429  0.6649220937382462  0.5220799082393424   T   T   T
  0.5234772167577297  0.7883100632700181  0.5220799082393424   T   T   T
  0.4619368788742944  0.7410492890776930  0.5220799082393424   T   T   T
  0.1604764556769753  0.9251857022743669  0.5220799082393424   T   T   T
  0.7883100632700181  0.4765227832422705  0.5220799082393424   T   T   T
  0.1139509136234884  0.8017977327425950  0.5220799082393424   T   T   T
  0.8490585067430820  0.8245087479843130  0.5220799082393424   T   T   T
  0.7410492890776931  0.5380631211257056  0.5220799082393424   T   T   T
  0.7450358996039159  0.7395389673532896  0.5220799082393424   T   T   T
  0.6649220937382462  0.5230483252957572  0.5220799082393424   T   T   T
  0.8450718964086970  0.6230329022654923  0.5220799082393424   T   T   T
  0.8224028417462936  0.7538166456399327  0.5220799082393424   T   T   T
  0.7677049540744815  0.6087552234700857  0.5220799082393424   T   T   T
  0.8710814014256725  0.6920113573446741  0.5220799082393424   T   T   T
  0.3391636768504109  0.3392144427497822  0.5220799082393424   T   T   T
  0.7853008403844770  0.2922130619424225  0.5220799082393424   T   T   T
  0.7017863123685640  0.0707285271369762  0.5220799082393424   T   T   T
  0.6607855572502178  0.3391636768504110  0.5220799082393424   T   T   T
  0.5772710292343046  0.1176791420449644  0.5220799082393424   T   T   T
  0.2922130619424225  0.2146991596155229  0.5220799082393424   T   T   T
  0.0707285271369761  0.2982136876314359  0.5220799082393424   T   T   T
  0.1176791420449644  0.4227289707656954  0.5220799082393424   T   T   T
  0.6608363231495892  0.6607855572502177  0.5220799082393424   T   T   T
  0.9292714728630237  0.7017863123685643  0.5220799082393424   T   T   T
  0.8823208579550357  0.5772710292343047  0.5220799082393424   T   T   T
  0.2146991596155228  0.7077869380575774  0.5220799082393424   T   T   T
  0.2982136876314359  0.9292714728630237  0.5220799082393424   T   T   T
  0.3392144427497822  0.6608363231495892  0.5220799082393424   T   T   T
  0.4227289707656954  0.8823208579550357  0.5220799082393424   T   T   T
  0.7077869380575774  0.7853008403844772  0.5220799082393424   T   T   T
  0.8511633360356616  0.0125690062354687  0.5220799082393424   T   T   T
  0.9358890177484108  0.2372655787485407  0.5220799082393424   T   T   T
  0.4266828518703709  0.1726266252388464  0.5220799082393424   T   T   T
  0.5114085335831201  0.3973231977519185  0.5220799082393424   T   T   T
  0.0125690062354686  0.1488366639643383  0.5220799082393424   T   T   T
  0.2372655787485405  0.0641109822515891  0.5220799082393424   T   T   T
  0.1726266252388463  0.5733171481296292  0.5220799082393424   T   T   T
  0.3973231977519184  0.4885914664168799  0.5220799082393424   T   T   T
  0.8273733747611537  0.4266828518703709  0.5220799082393424   T   T   T
  0.7627344212514592  0.9358890177484110  0.5220799082393424   T   T   T
  0.6026768022480816  0.5114085335831202  0.5220799082393424   T   T   T
  0.1488366639643383  0.9874309937645313  0.5220799082393424   T   T   T
  0.0641109822515891  0.7627344212514593  0.5220799082393424   T   T   T
  0.5733171481296291  0.8273733747611538  0.5220799082393424   T   T   T
  0.4885914664168799  0.6026768022480816  0.5220799082393424   T   T   T
  0.9874309937645313  0.8511633360356620  0.5220799082393424   T   T   T
  0.0000000000000000  0.0000000000000000  0.5220799082393424   T   T   T
  0.5000000000000001  0.5000000000000000  0.5220799082393424   T   T   T
