 C  H  N 
 1.0000000000000000
    18.3914872155570954   -0.0000000000000173    0.0000000000000000
     0.0000000000000173   18.3914872155570954    0.0000000000000000
     0.0000000000000000    0.0000000000000000   20.9239999999999995
 C   H   N  
  12   4   4
Cartesian
  4.2722513673764295  7.1955733057034106 10.9239999999999995
  3.2662758655423145  4.5276780143961393 10.9239999999999995
  2.8493582365299628  6.9329855586698601 10.9239999999999995
  5.1675224718632728  6.0588821268104187 10.9239999999999995
  2.3710047575272886  5.6643691839322097 10.9239999999999995
  4.6891689928605977  4.7902657520727718 10.9239999999999995
  4.7624886893870384  8.4957062022109291 10.9239999999999995
  2.7760385435317056  3.2275451178886190 10.9239999999999995
  6.1625810292286936  8.7718506277616228 10.9239999999999995
  3.8932927650315623  9.6275245396351927 10.9239999999999995
  3.6452344643589947  2.0957267711074357 10.9239999999999995
  1.3759462001618656  2.9514006829810064 10.9239999999999995
  2.1642944364576975  7.7746144614828951 10.9239999999999995
  6.2377244267756762  6.2386580871649384 10.9239999999999995
  1.3008028026148843  5.4845932235776891 10.9239999999999995
  5.3742327929328599  3.9486368492597368 10.9239999999999995
  7.3073645118986805  8.9859237082363332 10.9239999999999995
  3.1748603711450176 10.5441550002857252 10.9239999999999995
  4.3636668582455398  1.1790963104569048 10.9239999999999995
  0.2311627174918803  2.7373276025062960 10.9239999999999995
