 C  H 
 1.0000000000000000
     7.1360000000000010   -0.0000000000000009    0.0000000000000000
     0.0000000000000009    7.1360000000000010    0.0000000000000000
     0.0000000000000000    0.0000000000000000   30.7288520077396932
 C   H  
   6   6
Cartesian
 -0.3812113402457697  1.3435811012319001 11.0634673077395966
 -1.3541810380328638  0.3416518661427301 11.0634673077395966
 -0.9729696860189827 -1.0019292331207041 11.0634673077395966
  0.3812113439307634 -1.3435811075871373 11.0634673077395966
  1.3541810315723111 -0.3416518626456635 11.0634673077395966
  0.9729696895573565  1.0019292367643922 11.0634673077395966
 -1.7302525468678105 -1.7817519212562454 11.0634673077395966
 -2.4081687538471006  0.6075666943739777 11.0634673077395966
 -0.6779161560952125  2.3893186781787228 11.0634673077395966
  1.7302525405538773  1.7817519147543837 11.0634673077395966
  0.6779161496346613 -2.3893186746816628 11.0634673077395966
  2.4081687575320978 -0.6075667007292167 11.0634673077395966
