Cu  O 
 1.0000000000000000
     7.1360000000000010   -0.0000000000000009    0.0000000000000000
     0.0000000000000009    7.1360000000000010    0.0000000000000000
     0.0000000000000000    0.0000000000000000   30.7288520077396932
 Cu  O  
  38   4
Selective dynamics
Cartesian
  0.0000000000000007  5.3520000000000003  5.7932397167783405   T   T   T
  5.6404023283886850  1.7840000000000003  7.8015436244230632   T   T   T
  3.5680000000000001  1.7839999999999998  2.2840000000000811   F   F   F
  3.5680000000000001  1.7839999999999998  5.9514869349696182   T   T   T
  3.5679999999999996 -0.0000000000000004  7.9288520077395939   T   T   T
  3.5679999999999996 -0.0000000000000004  0.4999999999999042   F   F   F
  1.7840000000000003 -0.0000000000000002  2.2840000000000811   F   F   F
  5.3520000000000012  1.7839999999999996  0.4999999999999042   F   F   F
  1.7560908849085588 -0.0000000000000002  5.9095587723613772   T   T   T
  1.4955976716113166  1.7840000000000000  7.8015436244230632   T   T   T
  0.0000000000000002  1.7840000000000003  5.7932397167783405   T   T   T
  5.3520000000000003 -0.0000000000000007  2.2840000000000811   F   F   F
  5.3268116827310834  1.7840000000000005  4.1016257190198635   T   T   T
  1.7840000000000005  1.7840000000000000  0.4999999999999042   F   F   F
  1.8091883172689178  1.7840000000000000  4.1016257190198635   T   T   T
  0.0000000000000000  0.0000000000000000  4.0680337179421793   T   T   T
  3.5679999999999996 -0.0000000000000004  4.1267648501274188   T   T   T
  0.0000000000000000  0.0000000000000000  0.4999999999999042   F   F   F
  3.5680000000000001  3.5679999999999992  4.1267648501274188   T   T   T
  3.5680000000000005  5.3520000000000039  5.9514869349696182   T   T   T
  3.5680000000000001  3.5679999999999992  7.9288520077395939   T   T   T
  1.7840000000000009  5.3520000000000003  0.4999999999999042   F   F   F
  0.0000000000000002  1.7840000000000003  2.2840000000000811   F   F   F
  1.7839999999999998  3.5679999999999996  2.2840000000000811   F   F   F
  1.4955976716113171  5.3520000000000003  7.8015436244230632   T   T   T
  3.5680000000000005  5.3520000000000039  2.2840000000000811   F   F   F
  0.0000000000000004  3.5679999999999996  4.0680337179421793   T   T   T
  1.7560908849085592  3.5679999999999996  5.9095587723613772   T   T   T
  5.3520000000000021  3.5680000000000005  2.2840000000000811   F   F   F
  5.3268116827310870  5.3520000000000021  4.1016257190198635   T   T   T
  5.3799091150914400  3.5680000000000005  5.9095587723613772   T   T   T
  5.6404023283886859  5.3520000000000012  7.8015436244230632   T   T   T
  1.8091883172689183  5.3520000000000012  4.1016257190198635   T   T   T
  0.0000000000000004  3.5679999999999996  0.4999999999999042   F   F   F
  0.0000000000000007  5.3520000000000003  2.2840000000000811   F   F   F
  5.3799091150914400 -0.0000000000000007  5.9095587723613772   T   T   T
  5.3520000000000012  5.3520000000000021  0.4999999999999042   F   F   F
  3.5680000000000001  3.5679999999999992  0.4999999999999042   F   F   F
  5.4238122649732468 -0.0000000000000007  8.1715039358330550   T   T   T
  1.7121877350267531 -0.0000000000000002  8.1715039358330550   T   T   T
  5.4238122649732476  3.5679999999999996  8.1715039358330550   T   T   T
  1.7121877350267529  3.5679999999999996  8.1715039358330550   T   T   T
