Ag  C  H  N Ni 
 1.0000000000000000
    18.3914872155570954   -0.0000000000000173    0.0000000000000000
     0.0000000000000173   18.3914872155570954    0.0000000000000000
     0.0000000000000000    0.0000000000000000   20.9239999999999995
 Ag  C   H   N   Ni 
 205  48  16  16   2
Selective dynamics
Cartesian
  0.4485728589160405 14.3543314853128514  0.0000000000000000   F   F   F
  2.4671507240381603 14.5786179147708630  2.0310000000000001   F   F   F
  0.4485728589160405 14.3543314853128514  4.0620000000000003   F   F   F
  2.4671507240381603 14.5786179147708630  6.0930000000000000   T   T   T
  0.4485728589160405 14.3543314853128514  8.1240000000000006   T   T   T
  2.2428642945801505 16.5971957798929886  0.0000000000000000   F   F   F
  4.2614421597022734 16.8214822093510001  2.0310000000000001   F   F   F
  2.2428642945801505 16.5971957798929886  4.0620000000000003   F   F   F
  4.2614421597022734 16.8214822093510001  6.0930000000000000   T   T   T
  2.2428642945801505 16.5971957798929886  8.1240000000000006   T   T   T
  0.8971457178320634 10.3171757550686145  0.0000000000000000   F   F   F
  2.9157235829541852 10.5414621845266261  2.0310000000000001   F   F   F
  0.8971457178320634 10.3171757550686145  4.0620000000000003   F   F   F
  2.9157235829541852 10.5414621845266261  6.0930000000000000   T   T   T
  0.8971457178320634 10.3171757550686145  8.1240000000000006   T   T   T
  2.6914371534961719 12.5600400496487410  0.0000000000000000   F   F   F
  4.7100150186182912 12.7843264791067543  2.0310000000000001   F   F   F
  2.6914371534961719 12.5600400496487410  4.0620000000000003   F   F   F
  4.7100150186182912 12.7843264791067543  6.0930000000000000   T   T   T
  2.6914371534961719 12.5600400496487410  8.1240000000000006   T   T   T
  4.4857285891602832 14.8029043442288781  0.0000000000000000   F   F   F
  6.5043064542824043 15.0271907736868862  2.0310000000000001   F   F   F
  4.4857285891602832 14.8029043442288781  4.0620000000000003   F   F   F
  6.5043064542824043 15.0271907736868862  6.0930000000000000   T   T   T
  4.4857285891602832 14.8029043442288781  8.1240000000000006   T   T   T
  6.2800200248243936 17.0457686388090153  0.0000000000000000   F   F   F
  8.2985978899465103 17.2700550682670197  2.0310000000000001   F   F   F
  6.2800200248243936 17.0457686388090153  4.0620000000000003   F   F   F
  8.2985978899465103 17.2700550682670197  6.0930000000000000   T   T   T
  6.2800200248243936 17.0457686388090153  8.1240000000000006   T   T   T
  1.3457185767480859  6.2800200248243705  0.0000000000000000   F   F   F
  3.3642964418702075  6.5043064542823839  2.0310000000000001   F   F   F
  1.3457185767480859  6.2800200248243705  4.0620000000000003   F   F   F
  3.3642964418702075  6.5043064542823839  6.0930000000000000   T   T   T
  1.3457185767480859  6.2800200248243705  8.1240000000000006   T   T   T
  3.1400100124121968  8.5228843194045076  0.0000000000000000   F   F   F
  5.1585878775343144  8.7471707488625139  2.0310000000000001   F   F   F
  3.1400100124121968  8.5228843194045076  4.0620000000000003   F   F   F
  5.1585878775343144  8.7471707488625139  6.0930000000000000   T   T   T
  3.1400100124121968  8.5228843194045076  8.1240000000000006   T   T   T
  4.9343014480763054 10.7657486139846359  0.0000000000000000   F   F   F
  6.9528793131984230 10.9900350434426457  2.0310000000000001   F   F   F
  4.9343014480763054 10.7657486139846359  4.0620000000000003   F   F   F
  6.9528793131984230 10.9900350434426457  6.0930000000000000   T   T   T
  4.9343014480763054 10.7657486139846359  8.1240000000000006   T   T   T
  6.7285928837404150 13.0086129085647695  0.0000000000000000   F   F   F
  8.7471707488625352 13.2328993380227793  2.0310000000000001   F   F   F
  6.7285928837404150 13.0086129085647695  4.0620000000000003   F   F   F
  8.7471707488625352 13.2328993380227793  6.0930000000000000   T   T   T
  6.7285928837404150 13.0086129085647695  8.1240000000000006   T   T   T
  8.5228843194045236 15.2514772031448977  0.0000000000000000   F   F   F
 10.5414621845266421 15.4757636326029093  2.0310000000000001   F   F   F
  8.5228843194045236 15.2514772031448977  4.0620000000000003   F   F   F
 10.5414621845266421 15.4757636326029093  6.0930000000000000   T   T   T
  8.5228843194045236 15.2514772031448977  8.1240000000000006   T   T   T
 10.3171757550686358 17.4943414977250313  0.0000000000000000   F   F   F
 12.3357536201907543 17.7186279271830394  2.0310000000000001   F   F   F
 10.3171757550686358 17.4943414977250313  4.0620000000000003   F   F   F
 12.3357536201907543 17.7186279271830394  6.0930000000000000   T   T   T
 10.3171757550686358 17.4943414977250313  8.1240000000000006   T   T   T
  0.0000000000000000  0.0000000000000000  0.0000000000000000   F   F   F
  2.0185778651221202  0.2242864294580112  2.0310000000000001   F   F   F
  0.0000000000000000  0.0000000000000000  4.0620000000000003   F   F   F
  2.0185778651221202  0.2242864294580112  6.0930000000000000   T   T   T
  0.0000000000000000  0.0000000000000000  8.1240000000000006   T   T   T
  1.7942914356641089  2.2428642945801318  0.0000000000000000   F   F   F
  3.8128693007862293  2.4671507240381434  2.0310000000000001   F   F   F
  1.7942914356641089  2.2428642945801318  4.0620000000000003   F   F   F
  3.8128693007862293  2.4671507240381434  6.0930000000000000   T   T   T
  1.7942914356641089  2.2428642945801318  8.1240000000000006   T   T   T
  3.5885828713282177  4.4857285891602636  0.0000000000000000   F   F   F
  5.6071607364503393  4.7100150186182752  2.0310000000000001   F   F   F
  3.5885828713282177  4.4857285891602636  4.0620000000000003   F   F   F
  5.6071607364503393  4.7100150186182752  6.0930000000000000   T   T   T
  3.5885828713282177  4.4857285891602636  8.1240000000000006   T   T   T
  5.3828743069923268  6.7285928837403954  0.0000000000000000   F   F   F
  7.4014521721144471  6.9528793131984070  2.0310000000000001   F   F   F
  5.3828743069923268  6.7285928837403954  4.0620000000000003   F   F   F
  7.4014521721144471  6.9528793131984070  6.0930000000000000   T   T   T
  5.3828743069923268  6.7285928837403954  8.1240000000000006   T   T   T
  7.1771657426564355  8.9714571783205272  0.0000000000000000   F   F   F
  9.1957436077785584  9.1957436077785388  2.0310000000000001   F   F   F
  7.1771657426564355  8.9714571783205272  4.0620000000000003   F   F   F
  9.1957436077785584  9.1957436077785388  6.0930000000000000   T   T   T
  7.1771657426564355  8.9714571783205272  8.1240000000000006   T   T   T
  8.9714571783205468 11.2143214729006608  0.0000000000000000   F   F   F
 10.9900350434426652 11.4386079023586689  2.0310000000000001   F   F   F
  8.9714571783205468 11.2143214729006608  4.0620000000000003   F   F   F
 10.9900350434426652 11.4386079023586689  6.0930000000000000   T   T   T
  8.9714571783205468 11.2143214729006608  8.1240000000000006   T   T   T
 10.7657486139846537 13.4571857674807909  0.0000000000000000   F   F   F
 12.7843264791067774 13.6814721969388042  2.0310000000000001   F   F   F
 10.7657486139846537 13.4571857674807909  4.0620000000000003   F   F   F
 12.7843264791067774 13.6814721969388042  6.0930000000000000   T   T   T
 10.7657486139846537 13.4571857674807909  8.1240000000000006   T   T   T
 12.5600400496487659 15.7000500620609262  0.0000000000000000   F   F   F
 14.5786179147708825 15.9243364915189325  2.0310000000000001   F   F   F
 12.5600400496487659 15.7000500620609262  4.0620000000000003   F   F   F
 14.5786179147708825 15.9243364915189325  6.0930000000000000   T   T   T
 12.5600400496487659 15.7000500620609262  8.1240000000000006   T   T   T
 14.3543314853128710 17.9429143566410545  0.0000000000000000   F   F   F
 16.3729093504349947 18.1672007860990661  2.0310000000000001   F   F   F
 14.3543314853128710 17.9429143566410545  4.0620000000000003   F   F   F
 16.3729093504349947 18.1672007860990661  6.0930000000000000   T   T   T
 14.3543314853128710 17.9429143566410545  8.1240000000000006   T   T   T
  4.0371557302442405  0.4485728589160225  0.0000000000000000   F   F   F
  6.0557335953663607  0.6728592883740336  2.0310000000000001   F   F   F
  4.0371557302442405  0.4485728589160225  4.0620000000000003   F   F   F
  6.0557335953663607  0.6728592883740336  6.0930000000000000   T   T   T
  4.0371557302442405  0.4485728589160225  8.1240000000000006   T   T   T
  5.8314471659083509  2.6914371534961536  0.0000000000000000   F   F   F
  7.8500250310304693  2.9157235829541648  2.0310000000000001   F   F   F
  5.8314471659083509  2.6914371534961536  4.0620000000000003   F   F   F
  7.8500250310304693  2.9157235829541648  6.0930000000000000   T   T   T
  5.8314471659083509  2.6914371534961536  8.1240000000000006   T   T   T
  7.6257386015724586  4.9343014480762850  0.0000000000000000   F   F   F
  9.6443164666945798  5.1585878775342957  2.0310000000000001   F   F   F
  7.6257386015724586  4.9343014480762850  4.0620000000000003   F   F   F
  9.6443164666945798  5.1585878775342957  6.0930000000000000   T   T   T
  7.6257386015724586  4.9343014480762850  8.1240000000000006   T   T   T
  9.4200300372365700  7.1771657426564159  0.0000000000000000   F   F   F
 11.4386079023586884  7.4014521721144266  2.0310000000000001   F   F   F
  9.4200300372365700  7.1771657426564159  4.0620000000000003   F   F   F
 11.4386079023586884  7.4014521721144266  6.0930000000000000   T   T   T
  9.4200300372365700  7.1771657426564159  8.1240000000000006   T   T   T
 11.2143214729006768  9.4200300372365451  0.0000000000000000   F   F   F
 13.2328993380227988  9.6443164666945584  2.0310000000000001   F   F   F
 11.2143214729006768  9.4200300372365451  4.0620000000000003   F   F   F
 13.2328993380227988  9.6443164666945584  6.0930000000000000   T   T   T
 11.2143214729006768  9.4200300372365451  8.1240000000000006   T   T   T
 13.0086129085647872 11.6628943318166787  0.0000000000000000   F   F   F
 15.0271907736869057 11.8871807612746885  2.0310000000000001   F   F   F
 13.0086129085647872 11.6628943318166787  4.0620000000000003   F   F   F
 15.0271907736869057 11.8871807612746885  6.0930000000000000   T   T   T
 13.0086129085647872 11.6628943318166787  8.1240000000000006   T   T   T
 14.8029043442288977 13.9057586263968158  0.0000000000000000   F   F   F
 16.8214822093510108 14.1300450558548203  2.0310000000000001   F   F   F
 14.8029043442288977 13.9057586263968158  4.0620000000000003   F   F   F
 16.8214822093510108 14.1300450558548203  6.0930000000000000   T   T   T
 14.8029043442288977 13.9057586263968158  8.1240000000000006   T   T   T
 16.5971957798930063 16.1486229209769476  0.0000000000000000   F   F   F
  0.2242864294580307 16.3729093504349734  2.0310000000000001   F   F   F
 16.5971957798930063 16.1486229209769476  4.0620000000000003   F   F   F
  0.2242864294580307 16.3729093504349734  6.0930000000000000   T   T   T
 16.5971957798930063 16.1486229209769476  8.1240000000000006   T   T   T
  8.0743114604884809  0.8971457178320450  0.0000000000000000   F   F   F
 10.0928893256106029  1.1214321472900555  2.0310000000000001   F   F   F
  8.0743114604884809  0.8971457178320450  4.0620000000000003   F   F   F
 10.0928893256106029  1.1214321472900555  6.0930000000000000   T   T   T
  8.0743114604884809  0.8971457178320450  8.1240000000000006   T   T   T
  9.8686028961525913  3.1400100124121764  0.0000000000000000   F   F   F
 11.8871807612747098  3.3642964418701862  2.0310000000000001   F   F   F
  9.8686028961525913  3.1400100124121764  4.0620000000000003   F   F   F
 11.8871807612747098  3.3642964418701862  6.0930000000000000   T   T   T
  9.8686028961525913  3.1400100124121764  8.1240000000000006   T   T   T
 11.6628943318167018  5.3828743069923073  0.0000000000000000   F   F   F
 13.6814721969388220  5.6071607364503162  2.0310000000000001   F   F   F
 11.6628943318167018  5.3828743069923073  4.0620000000000003   F   F   F
 13.6814721969388220  5.6071607364503162  6.0930000000000000   T   T   T
 11.6628943318167018  5.3828743069923073  8.1240000000000006   T   T   T
 13.4571857674808122  7.6257386015724418  0.0000000000000000   F   F   F
 15.4757636326029289  7.8500250310304507  2.0310000000000001   F   F   F
 13.4571857674808122  7.6257386015724418  4.0620000000000003   F   F   F
 15.4757636326029289  7.8500250310304507  6.0930000000000000   T   T   T
 13.4571857674808122  7.6257386015724418  8.1240000000000006   T   T   T
 15.2514772031449173  9.8686028961525700  0.0000000000000000   F   F   F
 17.2700550682670340 10.0928893256105798  2.0310000000000001   F   F   F
 15.2514772031449173  9.8686028961525700  4.0620000000000003   F   F   F
 17.2700550682670340 10.0928893256105798  6.0930000000000000   T   T   T
 15.2514772031449173  9.8686028961525700  8.1240000000000006   T   T   T
 17.0457686388090224 12.1114671907327036  0.0000000000000000   F   F   F
  0.6728592883740534 12.3357536201907330  2.0310000000000001   F   F   F
 17.0457686388090224 12.1114671907327036  4.0620000000000003   F   F   F
  0.6728592883740534 12.3357536201907330  6.0930000000000000   T   T   T
 17.0457686388090224 12.1114671907327036  8.1240000000000006   T   T   T
 12.1114671907327232  1.3457185767480657  0.0000000000000000   F   F   F
 14.1300450558548434  1.5700050062060789  2.0310000000000001   F   F   F
 12.1114671907327232  1.3457185767480657  4.0620000000000003   F   F   F
 14.1300450558548434  1.5700050062060789  6.0930000000000000   T   T   T
 12.1114671907327232  1.3457185767480657  8.1240000000000006   T   T   T
 13.9057586263968318  3.5885828713282013  0.0000000000000000   F   F   F
 15.9243364915189467  3.8128693007862102  2.0310000000000001   F   F   F
 13.9057586263968318  3.5885828713282013  4.0620000000000003   F   F   F
 15.9243364915189467  3.8128693007862102  6.0930000000000000   T   T   T
 13.9057586263968318  3.5885828713282013  8.1240000000000006   T   T   T
 15.7000500620609387  5.8314471659083313  0.0000000000000000   F   F   F
 17.7186279271830571  6.0557335953663429  2.0310000000000001   F   F   F
 15.7000500620609387  5.8314471659083313  4.0620000000000003   F   F   F
 17.7186279271830571  6.0557335953663429  6.0930000000000000   T   T   T
 15.7000500620609387  5.8314471659083313  8.1240000000000006   T   T   T
 17.4943414977250491  8.0743114604884632  0.0000000000000000   F   F   F
  1.1214321472900772  8.2985978899464907  2.0310000000000001   F   F   F
 17.4943414977250491  8.0743114604884632  4.0620000000000003   F   F   F
  1.1214321472900772  8.2985978899464907  6.0930000000000000   T   T   T
 17.4943414977250491  8.0743114604884632  8.1240000000000006   T   T   T
 16.1486229209769618  1.7942914356640900  0.0000000000000000   F   F   F
 18.1672007860990803  2.0185778651221011  2.0310000000000001   F   F   F
 16.1486229209769618  1.7942914356640900  4.0620000000000003   F   F   F
 18.1672007860990803  2.0185778651221011  6.0930000000000000   T   T   T
 16.1486229209769618  1.7942914356640900  8.1240000000000006   T   T   T
 17.9429143566410723  4.0371557302442209  0.0000000000000000   F   F   F
  1.5700050062060962  4.2614421597022503  2.0310000000000001   F   F   F
 17.9429143566410723  4.0371557302442209  4.0620000000000003   F   F   F
  1.5700050062060962  4.2614421597022503  6.0930000000000000   T   T   T
 17.9429143566410723  4.0371557302442209  8.1240000000000006   T   T   T
 14.1192358481806846 11.1959139098536724 10.9239999999999995   T   T   T
 15.1252113500147978 13.8638092011609420 10.9239999999999995   T   T   T
 15.5421289790271508 11.4585016568872220 10.9239999999999995   T   T   T
 13.2239647436938412 12.3326050887466607 10.9239999999999995   T   T   T
 16.0204824580298251 12.7271180316248724 10.9239999999999995   T   T   T
 13.7023182226965119 13.6012214634843094 10.9239999999999995   T   T   T
 13.6289985261700757  9.8957810133461521 10.9239999999999995   T   T   T
 15.6154486720254049 15.1639420976684640 10.9239999999999995   T   T   T
 12.2289061863284214  9.6196365877954566 10.9239999999999995   T   T   T
 14.4981944505255527  8.7639626759218885 10.9239999999999995   T   T   T
 14.7462527511981136 16.2957604444496447 10.9239999999999995   T   T   T
 17.0155410153952467 15.4400865325760748 10.9239999999999995   T   T   T
  7.1955733057034266 14.1192358481806686 10.9239999999999995   T   T   T
  4.5276780143961561 15.1252113500147782 10.9239999999999995   T   T   T
  6.9329855586698770 15.5421289790271331 10.9239999999999995   T   T   T
  6.0588821268104347 13.2239647436938235 10.9239999999999995   T   T   T
  5.6643691839322257 16.0204824580298073 10.9239999999999995   T   T   T
  4.7902657520727887 13.7023182226964959 10.9239999999999995   T   T   T
  8.4957062022109451 13.6289985261700579 10.9239999999999995   T   T   T
  3.2275451178886345 15.6154486720253889 10.9239999999999995   T   T   T
  8.7718506277616406 12.2289061863284019 10.9239999999999995   T   T   T
  9.6275245396352105 14.4981944505255331 10.9239999999999995   T   T   T
  2.0957267711074516 14.7462527511980994 10.9239999999999995   T   T   T
  2.9514006829810224 17.0155410153952289 10.9239999999999995   T   T   T
 11.1959139098536848  4.2722513673764135 10.9239999999999995   T   T   T
 13.8638092011609562  3.2662758655422999 10.9239999999999995   T   T   T
 11.4585016568872362  2.8493582365299472 10.9239999999999995   T   T   T
 12.3326050887466785  5.1675224718632569 10.9239999999999995   T   T   T
 12.7271180316248866  2.3710047575272730 10.9239999999999995   T   T   T
 13.6012214634843236  4.6891689928605826 10.9239999999999995   T   T   T
  9.8957810133461681  4.7624886893870233 10.9239999999999995   T   T   T
 15.1639420976684782  2.7760385435316906 10.9239999999999995   T   T   T
  9.6196365877954726  6.1625810292286776 10.9239999999999995   T   T   T
  8.7639626759219009  3.8932927650315463 10.9239999999999995   T   T   T
 16.2957604444496624  3.6452344643589800 10.9239999999999995   T   T   T
 15.4400865325760908  1.3759462001618508 10.9239999999999995   T   T   T
  4.2722513673764295  7.1955733057034106 10.9239999999999995   T   T   T
  3.2662758655423145  4.5276780143961393 10.9239999999999995   T   T   T
  2.8493582365299628  6.9329855586698601 10.9239999999999995   T   T   T
  5.1675224718632728  6.0588821268104187 10.9239999999999995   T   T   T
  2.3710047575272886  5.6643691839322097 10.9239999999999995   T   T   T
  4.6891689928605977  4.7902657520727718 10.9239999999999995   T   T   T
  4.7624886893870384  8.4957062022109291 10.9239999999999995   T   T   T
  2.7760385435317056  3.2275451178886190 10.9239999999999995   T   T   T
  6.1625810292286936  8.7718506277616228 10.9239999999999995   T   T   T
  3.8932927650315623  9.6275245396351927 10.9239999999999995   T   T   T
  3.6452344643589947  2.0957267711074357 10.9239999999999995   T   T   T
  1.3759462001618656  2.9514006829810064 10.9239999999999995   T   T   T
 16.2271927790994184 10.6168727540741870 10.9239999999999995   T   T   T
 12.1537627887814370 12.1528291283921401 10.9239999999999995   T   T   T
 17.0906844129422240 12.9068939919793930 10.9239999999999995   T   T   T
 13.0172544226242515 14.4428503662973444 10.9239999999999995   T   T   T
  7.7746144614829120 16.2271927790994006 10.9239999999999995   T   T   T
  6.2386580871649553 12.1537627887814210 10.9239999999999995   T   T   T
  5.4845932235777060 17.0906844129422097 10.9239999999999995   T   T   T
  3.9486368492597528 13.0172544226242337 10.9239999999999995   T   T   T
 10.6168727540742012  2.1642944364576815 10.9239999999999995   T   T   T
 12.1528291283921579  6.2377244267756611 10.9239999999999995   T   T   T
 12.9068939919794055  1.3008028026148692 10.9239999999999995   T   T   T
 14.4428503662973586  5.3742327929328448 10.9239999999999995   T   T   T
  2.1642944364576975  7.7746144614828951 10.9239999999999995   T   T   T
  6.2377244267756762  6.2386580871649384 10.9239999999999995   T   T   T
  1.3008028026148843  5.4845932235776891 10.9239999999999995   T   T   T
  5.3742327929328599  3.9486368492597368 10.9239999999999995   T   T   T
 11.0841227036584336  9.4055635073207462 10.9239999999999995   T   T   T
 15.2166268444120956  7.8473322152713552 10.9239999999999995   T   T   T
 14.0278203573115690 17.2123909051001753 10.9239999999999995   T   T   T
 18.1603244980652292 15.6541596130507870 10.9239999999999995   T   T   T
  8.9859237082363510 11.0841227036584158 10.9239999999999995   T   T   T
 10.5441550002857412 15.2166268444120796 10.9239999999999995   T   T   T
  1.1790963104569210 14.0278203573115530 10.9239999999999995   T   T   T
  2.7373276025063120 18.1603244980652114 10.9239999999999995   T   T   T
  9.4055635073207622  7.3073645118986645 10.9239999999999995   T   T   T
  7.8473322152713703  3.1748603711450016 10.9239999999999995   T   T   T
 17.2123909051001895  4.3636668582455247 10.9239999999999995   T   T   T
 15.6541596130507994  0.2311627174918656 10.9239999999999995   T   T   T
  7.3073645118986805  8.9859237082363332 10.9239999999999995   T   T   T
  3.1748603711450176 10.5441550002857252 10.9239999999999995   T   T   T
  4.3636668582455398  1.1790963104569048 10.9239999999999995   T   T   T
  0.2311627174918803  2.7373276025062960 10.9239999999999995   T   T   T
  0.0000000000000000  0.0000000000000000 10.9239999999999995   T   T   T
  9.1957436077785584  9.1957436077785388 10.9239999999999995   T   T   T
