 C  H  N 
 1.0000000000000000
    18.3914872155570954   -0.0000000000000173    0.0000000000000000
     0.0000000000000173   18.3914872155570954    0.0000000000000000
     0.0000000000000000    0.0000000000000000   20.9239999999999995
 C   H   N  
  12   4   4
Cartesian
  7.1955733057034266 14.1192358481806686 10.9239999999999995
  4.5276780143961561 15.1252113500147782 10.9239999999999995
  6.9329855586698770 15.5421289790271331 10.9239999999999995
  6.0588821268104347 13.2239647436938235 10.9239999999999995
  5.6643691839322257 16.0204824580298073 10.9239999999999995
  4.7902657520727887 13.7023182226964959 10.9239999999999995
  8.4957062022109451 13.6289985261700579 10.9239999999999995
  3.2275451178886345 15.6154486720253889 10.9239999999999995
  8.7718506277616406 12.2289061863284019 10.9239999999999995
  9.6275245396352105 14.4981944505255331 10.9239999999999995
  2.0957267711074516 14.7462527511980994 10.9239999999999995
  2.9514006829810224 17.0155410153952289 10.9239999999999995
  7.7746144614829120 16.2271927790994006 10.9239999999999995
  6.2386580871649553 12.1537627887814210 10.9239999999999995
  5.4845932235777060 17.0906844129422097 10.9239999999999995
  3.9486368492597528 13.0172544226242337 10.9239999999999995
  8.9859237082363510 11.0841227036584158 10.9239999999999995
 10.5441550002857412 15.2166268444120796 10.9239999999999995
  1.1790963104569210 14.0278203573115530 10.9239999999999995
  2.7373276025063120 18.1603244980652114 10.9239999999999995
