 C  H  N 
 1.0000000000000000
    18.3914872155570954   -0.0000000000000173    0.0000000000000000
     0.0000000000000173   18.3914872155570954    0.0000000000000000
     0.0000000000000000    0.0000000000000000   20.9239999999999995
 C   H   N  
  12   4   4
Cartesian
 14.1192358481806846 11.1959139098536724 10.9239999999999995
 15.1252113500147978 13.8638092011609420 10.9239999999999995
 15.5421289790271508 11.4585016568872220 10.9239999999999995
 13.2239647436938412 12.3326050887466607 10.9239999999999995
 16.0204824580298251 12.7271180316248724 10.9239999999999995
 13.7023182226965119 13.6012214634843094 10.9239999999999995
 13.6289985261700757  9.8957810133461521 10.9239999999999995
 15.6154486720254049 15.1639420976684640 10.9239999999999995
 12.2289061863284214  9.6196365877954566 10.9239999999999995
 14.4981944505255527  8.7639626759218885 10.9239999999999995
 14.7462527511981136 16.2957604444496447 10.9239999999999995
 17.0155410153952467 15.4400865325760748 10.9239999999999995
 16.2271927790994184 10.6168727540741870 10.9239999999999995
 12.1537627887814370 12.1528291283921401 10.9239999999999995
 17.0906844129422240 12.9068939919793930 10.9239999999999995
 13.0172544226242515 14.4428503662973444 10.9239999999999995
 11.0841227036584336  9.4055635073207462 10.9239999999999995
 15.2166268444120956  7.8473322152713552 10.9239999999999995
 14.0278203573115690 17.2123909051001753 10.9239999999999995
 18.1603244980652292 15.6541596130507870 10.9239999999999995
