 C  H  N 
 1.0000000000000000
    18.3914872155570954   -0.0000000000000173    0.0000000000000000
     0.0000000000000173   18.3914872155570954    0.0000000000000000
     0.0000000000000000    0.0000000000000000   20.9239999999999995
 C   H   N  
  12   4   4
Cartesian
 11.1959139098536848  4.2722513673764135 10.9239999999999995
 13.8638092011609562  3.2662758655422999 10.9239999999999995
 11.4585016568872362  2.8493582365299472 10.9239999999999995
 12.3326050887466785  5.1675224718632569 10.9239999999999995
 12.7271180316248866  2.3710047575272730 10.9239999999999995
 13.6012214634843236  4.6891689928605826 10.9239999999999995
  9.8957810133461681  4.7624886893870233 10.9239999999999995
 15.1639420976684782  2.7760385435316906 10.9239999999999995
  9.6196365877954726  6.1625810292286776 10.9239999999999995
  8.7639626759219009  3.8932927650315463 10.9239999999999995
 16.2957604444496624  3.6452344643589800 10.9239999999999995
 15.4400865325760908  1.3759462001618508 10.9239999999999995
 10.6168727540742012  2.1642944364576815 10.9239999999999995
 12.1528291283921579  6.2377244267756611 10.9239999999999995
 12.9068939919794055  1.3008028026148692 10.9239999999999995
 14.4428503662973586  5.3742327929328448 10.9239999999999995
  9.4055635073207622  7.3073645118986645 10.9239999999999995
  7.8473322152713703  3.1748603711450016 10.9239999999999995
 17.2123909051001895  4.3636668582455247 10.9239999999999995
 15.6541596130507994  0.2311627174918656 10.9239999999999995
